unsat
(define-fun f1 ((x Int) (y Int) (z Int)) Int 1)
(define-fun f2 ((x Int) (y Int) (z Int)) Int (- y 1))
(define-fun f3 ((x Int) (y Int) (z Int)) Int (+ z x))
0.72user 0.00system 0:00.72elapsed 99%CPU (0avgtext+0avgdata 29180maxresident)k
0inputs+8outputs (0major+2089minor)pagefaults 0swaps
